experiments/lot-sizing/detailed-output/inst-9-601225362.dzn

change_cost = array2d(0..8, 0..8,
                      [0, 0, 0, 0, 0, 0, 0, 0, 0, 0, 0, 124, 64, 170, 24, 0, 144, 6,
                       0, 140, 0, 111, 164, 10, 44, 117, 24, 0, 125, 98, 0, 141, 105, 102, 162, 116,
                       0, 159, 142, 118, 0, 32, 139, 107, 3, 0, 144, 133, 102, 162, 0, 144, 181, 112,
                       0, 179, 138, 126, 176, 37, 0, 177, 91, 0, 93, 119, 57, 147, 24, 50, 0, 41,
                       0, 182, 198, 123, 200, 119, 179, 141, 0]);
due_period = array1d(1..8, [4, 7, 1, 2, 1, 6, 1, 4]);
inventory_cost = 8;
item_type = array1d(0..8, [0, 1, 2, 3, 4, 5, 6, 6, 6]);
nb_item_types = 6;
nb_of_orders = array1d(1..6, [1, 1, 1, 1, 1, 3]);
nb_orders = 8;
nb_periods = 10;
